certificates/rado_a5_c237_N47.cnf
c Rad2 upper bound instance: x1 + 5*x2 - x3 = 237, interval [1,47]
p cnf 47 450
1 3 47 0
-1 -3 -47 0
2 4 47 0
-2 -4 -47 0
3 5 47 0
-3 -5 -47 0
4 6 47 0
-4 -6 -47 0
5 7 47 0
-5 -7 -47 0
1 8 46 0
-1 -8 -46 0
6 8 47 0
-6 -8 -47 0
2 9 46 0
-2 -9 -46 0
7 9 47 0
-7 -9 -47 0
3 10 46 0
-3 -10 -46 0
8 10 47 0
-8 -10 -47 0
4 11 46 0
-4 -11 -46 0
9 11 47 0
-9 -11 -47 0
5 12 46 0
-5 -12 -46 0
10 12 47 0
-10 -12 -47 0
1 13 45 0
-1 -13 -45 0
6 13 46 0
-6 -13 -46 0
11 13 47 0
-11 -13 -47 0
2 14 45 0
-2 -14 -45 0
7 14 46 0
-7 -14 -46 0
12 14 47 0
-12 -14 -47 0
3 15 45 0
-3 -15 -45 0
8 15 46 0
-8 -15 -46 0
13 15 47 0
-13 -15 -47 0
4 16 45 0
-4 -16 -45 0
9 16 46 0
-9 -16 -46 0
14 16 47 0
-14 -16 -47 0
5 17 45 0
-5 -17 -45 0
10 17 46 0
-10 -17 -46 0
15 17 47 0
-15 -17 -47 0
1 18 44 0
-1 -18 -44 0
6 18 45 0
-6 -18 -45 0
11 18 46 0
-11 -18 -46 0
16 18 47 0
-16 -18 -47 0
2 19 44 0
-2 -19 -44 0
7 19 45 0
-7 -19 -45 0
12 19 46 0
-12 -19 -46 0
17 19 47 0
-17 -19 -47 0
3 20 44 0
-3 -20 -44 0
8 20 45 0
-8 -20 -45 0
13 20 46 0
-13 -20 -46 0
18 20 47 0
-18 -20 -47 0
4 21 44 0
-4 -21 -44 0
9 21 45 0
-9 -21 -45 0
14 21 46 0
-14 -21 -46 0
19 21 47 0
-19 -21 -47 0
5 22 44 0
-5 -22 -44 0
10 22 45 0
-10 -22 -45 0
15 22 46 0
-15 -22 -46 0
20 22 47 0
-20 -22 -47 0
1 23 43 0
-1 -23 -43 0
6 23 44 0
-6 -23 -44 0
11 23 45 0
-11 -23 -45 0
16 23 46 0
-16 -23 -46 0
21 23 47 0
-21 -23 -47 0
2 24 43 0
-2 -24 -43 0
7 24 44 0
-7 -24 -44 0
12 24 45 0
-12 -24 -45 0
17 24 46 0
-17 -24 -46 0
22 24 47 0
-22 -24 -47 0
3 25 43 0
-3 -25 -43 0
8 25 44 0
-8 -25 -44 0
13 25 45 0
-13 -25 -45 0
18 25 46 0
-18 -25 -46 0
23 25 47 0
-23 -25 -47 0
4 26 43 0
-4 -26 -43 0
9 26 44 0
-9 -26 -44 0
14 26 45 0
-14 -26 -45 0
19 26 46 0
-19 -26 -46 0
24 26 47 0
-24 -26 -47 0
5 27 43 0
-5 -27 -43 0
10 27 44 0
-10 -27 -44 0
15 27 45 0
-15 -27 -45 0
20 27 46 0
-20 -27 -46 0
25 27 47 0
-25 -27 -47 0
1 28 42 0
-1 -28 -42 0
6 28 43 0
-6 -28 -43 0
11 28 44 0
-11 -28 -44 0
16 28 45 0
-16 -28 -45 0
21 28 46 0
-21 -28 -46 0
26 28 47 0
-26 -28 -47 0
2 29 42 0
-2 -29 -42 0
7 29 43 0
-7 -29 -43 0
12 29 44 0
-12 -29 -44 0
17 29 45 0
-17 -29 -45 0
22 29 46 0
-22 -29 -46 0
27 29 47 0
-27 -29 -47 0
3 30 42 0
-3 -30 -42 0
8 30 43 0
-8 -30 -43 0
13 30 44 0
-13 -30 -44 0
18 30 45 0
-18 -30 -45 0
23 30 46 0
-23 -30 -46 0
28 30 47 0
-28 -30 -47 0
4 31 42 0
-4 -31 -42 0
9 31 43 0
-9 -31 -43 0
14 31 44 0
-14 -31 -44 0
19 31 45 0
-19 -31 -45 0
24 31 46 0
-24 -31 -46 0
29 31 47 0
-29 -31 -47 0
5 32 42 0
-5 -32 -42 0
10 32 43 0
-10 -32 -43 0
15 32 44 0
-15 -32 -44 0
20 32 45 0
-20 -32 -45 0
25 32 46 0
-25 -32 -46 0
30 32 47 0
-30 -32 -47 0
1 33 41 0
-1 -33 -41 0
6 33 42 0
-6 -33 -42 0
11 33 43 0
-11 -33 -43 0
16 33 44 0
-16 -33 -44 0
21 33 45 0
-21 -33 -45 0
26 33 46 0
-26 -33 -46 0
31 33 47 0
-31 -33 -47 0
2 34 41 0
-2 -34 -41 0
7 34 42 0
-7 -34 -42 0
12 34 43 0
-12 -34 -43 0
17 34 44 0
-17 -34 -44 0
22 34 45 0
-22 -34 -45 0
27 34 46 0
-27 -34 -46 0
32 34 47 0
-32 -34 -47 0
3 35 41 0
-3 -35 -41 0
8 35 42 0
-8 -35 -42 0
13 35 43 0
-13 -35 -43 0
18 35 44 0
-18 -35 -44 0
23 35 45 0
-23 -35 -45 0
28 35 46 0
-28 -35 -46 0
33 35 47 0
-33 -35 -47 0
4 36 41 0
-4 -36 -41 0
9 36 42 0
-9 -36 -42 0
14 36 43 0
-14 -36 -43 0
19 36 44 0
-19 -36 -44 0
24 36 45 0
-24 -36 -45 0
29 36 46 0
-29 -36 -46 0
34 36 47 0
-34 -36 -47 0
5 37 41 0
-5 -37 -41 0
10 37 42 0
-10 -37 -42 0
15 37 43 0
-15 -37 -43 0
20 37 44 0
-20 -37 -44 0
25 37 45 0
-25 -37 -45 0
30 37 46 0
-30 -37 -46 0
35 37 47 0
-35 -37 -47 0
1 38 40 0
-1 -38 -40 0
6 38 41 0
-6 -38 -41 0
11 38 42 0
-11 -38 -42 0
16 38 43 0
-16 -38 -43 0
21 38 44 0
-21 -38 -44 0
26 38 45 0
-26 -38 -45 0
31 38 46 0
-31 -38 -46 0
36 38 47 0
-36 -38 -47 0
2 39 40 0
-2 -39 -40 0
7 39 41 0
-7 -39 -41 0
12 39 42 0
-12 -39 -42 0
17 39 43 0
-17 -39 -43 0
22 39 44 0
-22 -39 -44 0
27 39 45 0
-27 -39 -45 0
32 39 46 0
-32 -39 -46 0
37 39 47 0
-37 -39 -47 0
3 40 0
-3 -40 0
8 40 41 0
-8 -40 -41 0
13 40 42 0
-13 -40 -42 0
18 40 43 0
-18 -40 -43 0
23 40 44 0
-23 -40 -44 0
28 40 45 0
-28 -40 -45 0
33 40 46 0
-33 -40 -46 0
38 40 47 0
-38 -40 -47 0
4 40 41 0
-4 -40 -41 0
9 41 0
-9 -41 0
14 41 42 0
-14 -41 -42 0
19 41 43 0
-19 -41 -43 0
24 41 44 0
-24 -41 -44 0
29 41 45 0
-29 -41 -45 0
34 41 46 0
-34 -41 -46 0
39 41 47 0
-39 -41 -47 0
5 40 42 0
-5 -40 -42 0
10 41 42 0
-10 -41 -42 0
15 42 0
-15 -42 0
20 42 43 0
-20 -42 -43 0
25 42 44 0
-25 -42 -44 0
30 42 45 0
-30 -42 -45 0
35 42 46 0
-35 -42 -46 0
40 42 47 0
-40 -42 -47 0
1 39 43 0
-1 -39 -43 0
6 40 43 0
-6 -40 -43 0
11 41 43 0
-11 -41 -43 0
16 42 43 0
-16 -42 -43 0
21 43 0
-21 -43 0
26 43 44 0
-26 -43 -44 0
31 43 45 0
-31 -43 -45 0
36 43 46 0
-36 -43 -46 0
41 43 47 0
-41 -43 -47 0
2 39 44 0
-2 -39 -44 0
7 40 44 0
-7 -40 -44 0
12 41 44 0
-12 -41 -44 0
17 42 44 0
-17 -42 -44 0
22 43 44 0
-22 -43 -44 0
27 44 0
-27 -44 0
32 44 45 0
-32 -44 -45 0
37 44 46 0
-37 -44 -46 0
42 44 47 0
-42 -44 -47 0
3 39 45 0
-3 -39 -45 0
8 40 45 0
-8 -40 -45 0
13 41 45 0
-13 -41 -45 0
18 42 45 0
-18 -42 -45 0
23 43 45 0
-23 -43 -45 0
28 44 45 0
-28 -44 -45 0
33 45 0
-33 -45 0
38 45 46 0
-38 -45 -46 0
43 45 47 0
-43 -45 -47 0
4 39 46 0
-4 -39 -46 0
9 40 46 0
-9 -40 -46 0
14 41 46 0
-14 -41 -46 0
19 42 46 0
-19 -42 -46 0
24 43 46 0
-24 -43 -46 0
29 44 46 0
-29 -44 -46 0
34 45 46 0
-34 -45 -46 0
39 46 0
-39 -46 0
44 46 47 0
-44 -46 -47 0
5 39 47 0
-5 -39 -47 0
10 40 47 0
-10 -40 -47 0
15 41 47 0
-15 -41 -47 0
20 42 47 0
-20 -42 -47 0
25 43 47 0
-25 -43 -47 0
30 44 47 0
-30 -44 -47 0
35 45 47 0
-35 -45 -47 0
40 46 47 0
-40 -46 -47 0
45 47 0
-45 -47 0
