certificates/rado_a5_c237_N47.drat
-47 0
45 0
-33 0
31 0
35 0
-19 0
-43 0
-23 0
17 0
21 0
41 0
25 0
11 0
1 0
-5 0
-29 0
-9 0
-13 0
-3 0
-37 0
0
